LYC2-CONTCAR                            
   1.00000000000000     
    11.1996222013170961    0.0373395880899673    0.0017951326184913
    -5.6415555473555878    9.8180969873377126    0.0099780227017391
     0.0009269191703824    0.0069689740617200    5.9915044202213723
   Li   Y    Cl
     9     3    18
Direct
  0.3318822109439297  0.9998282719953762  0.5002610799905388
  0.9942354181753444  0.3383325813530377  0.9938051642803435
  0.6555990520569979  0.6616273729410337  0.0064634557362116
  0.6512691162239672 -0.0000589726974474  0.0000580905248466
  0.0089873454512328  0.6677679625116540  0.9978999945572613
  0.3413066722386686  0.3322816785117260  0.0020510443590975
  0.6787821330356163  0.0002655497811392  0.5000259327508897
  0.9965782890723536  0.6769527903788148  0.5012756814816505
  0.3200033526379999  0.3234057305987037  0.4986587300239577
  0.0010429770171244  0.9999920457708600  0.9996956517732632
  0.3347202465844464  0.6616305458500634  0.5079163063055616
  0.6730737200959804  0.3383365275631440  0.4921370751413949
  0.1089353536651042  0.8826135437988036  0.7521554173543462
  0.2131667807965232  0.7758927974988437  0.2823420847122762
  0.4423132833193808  0.5430043273120467  0.7536001712722292
  0.1203149754049809  0.2322694984715169  0.7782517952323232
  0.2278203660153083  0.4386504916420410  0.2653064477454130
  0.4523916974670807  0.8933056902553294  0.7329451562775700
  0.7676691995018696  0.8882122736594411  0.7721732316566376
  0.5592507168848777  0.7859541523083766  0.2559609078053206
  0.1094457003368183  0.5605626989123260  0.7614713653488524
  0.8793657760549691  0.1117082513126506  0.2273158348338639
  0.7736296152965936  0.2141598426982878  0.7440574209417343
  0.5488478364240779  0.4394960301557727  0.2388860080585932
  0.2260281583627305  0.1174326940086619  0.2477958853181293
  0.4372972531108879  0.2241668684577050  0.7178336418534098
  0.8991287696626564  0.4570333846112967  0.2464067263949917
  0.8878520811575611  0.7675408325848306  0.2214007434171907
  0.7892136476048947  0.5611361903785356  0.7346884446327100
  0.5588082534000157  0.1064882973754210  0.2671604762193883
 
  0.00000000E+00  0.00000000E+00  0.00000000E+00
  0.00000000E+00  0.00000000E+00  0.00000000E+00
  0.00000000E+00  0.00000000E+00  0.00000000E+00
  0.00000000E+00  0.00000000E+00  0.00000000E+00
  0.00000000E+00  0.00000000E+00  0.00000000E+00
  0.00000000E+00  0.00000000E+00  0.00000000E+00
  0.00000000E+00  0.00000000E+00  0.00000000E+00
  0.00000000E+00  0.00000000E+00  0.00000000E+00
  0.00000000E+00  0.00000000E+00  0.00000000E+00
  0.00000000E+00  0.00000000E+00  0.00000000E+00
  0.00000000E+00  0.00000000E+00  0.00000000E+00
  0.00000000E+00  0.00000000E+00  0.00000000E+00
  0.00000000E+00  0.00000000E+00  0.00000000E+00
  0.00000000E+00  0.00000000E+00  0.00000000E+00
  0.00000000E+00  0.00000000E+00  0.00000000E+00
  0.00000000E+00  0.00000000E+00  0.00000000E+00
  0.00000000E+00  0.00000000E+00  0.00000000E+00
  0.00000000E+00  0.00000000E+00  0.00000000E+00
  0.00000000E+00  0.00000000E+00  0.00000000E+00
  0.00000000E+00  0.00000000E+00  0.00000000E+00
  0.00000000E+00  0.00000000E+00  0.00000000E+00
  0.00000000E+00  0.00000000E+00  0.00000000E+00
  0.00000000E+00  0.00000000E+00  0.00000000E+00
  0.00000000E+00  0.00000000E+00  0.00000000E+00
  0.00000000E+00  0.00000000E+00  0.00000000E+00
  0.00000000E+00  0.00000000E+00  0.00000000E+00
  0.00000000E+00  0.00000000E+00  0.00000000E+00
  0.00000000E+00  0.00000000E+00  0.00000000E+00
  0.00000000E+00  0.00000000E+00  0.00000000E+00
  0.00000000E+00  0.00000000E+00  0.00000000E+00
