Li Y  Cl Li Y  Cl Li Y  Cl Li Y  Cl
 1.0000000000000000
    11.3235275867375140    0.0000000000000000    0.0000000000000000
     0.0108602344484204    5.9914987022128763    0.0000000000000000
     0.0000000000000000    0.0000000000000000   53.8736184942292837
 Li  Y   Cl  Li  Y   Cl  Li  Y   Cl  Li  Y   Cl 
   9   3  18   9   3  18   9   3  18   9   3  18
Direct
  0.8372369629748762  0.5010158846289483  0.0597476536734380
  0.8512500177654868  0.9960663686491326  0.1793648150525169
  0.3404450240487181  0.0079544943912275  0.1182090443661816
  0.6808799428584424  0.0015392815425291  0.1174270829781398
  0.6633650020234155  0.9979204346104180  0.0014347070274026
  0.1650732630353950  0.0028272831897151  0.0614496569177732
  0.6677256548705507  0.5015696970310770  0.1223957748121245
  0.1887224387102838  0.5035422142764955  0.1797879239966848
  0.1666339535023068  0.4993865183986066  0.0576024005132413
  0.9994810843728081  0.9996980238313740  0.0000000000000000
  0.4976488642376550  0.5086775655305528  0.0602601865086458
  0.0085932222306625  0.4936678566933047  0.1213648684250731
  0.8292453873656984  0.7524031706460919  0.0194847396950321
  0.6714609696198609  0.2828268930858326  0.0383083330645960
  0.3263120992847861  0.7546061309376481  0.0796908671453159
  0.1733263894382640  0.7785254293666973  0.0215398336165689
  0.3270397746150399  0.2658245829853327  0.0409546858696562
  0.6716759799072639  0.7339740374298769  0.0815109704955960
  0.5121260119501151  0.7739191531114217  0.1384482653231155
  0.5119734955255170  0.2572328200115759  0.1008090918467965
  0.5069445202403906  0.7617202793296086  0.0195769053545672
  0.6809010916581643  0.2293157894705921  0.1586200215359222
  0.8351535335311172  0.7458168982586297  0.1395246819694303
  0.1706118139049156  0.2401342608394087  0.0989303917555142
  0.0066999914658971  0.2483099445135834  0.0406310235250602
  0.0099320270899027  0.7188281934868739  0.0787850010781165
  0.0165442025558551  0.2484516283014200  0.1621891039679161
  0.3325761754511832  0.2234199985835743  0.1601525991937129
  0.1744951598274807  0.7364833649455946  0.1423390681416521
  0.8327244064053263  0.2684313821243726  0.1007291854984989
  0.3473302922977621  0.5032901994717438  0.2403418745107906
  0.3613433470883728  0.9983406834919281  0.3599590358898695
  0.8505383533716043  0.0102288092340231  0.2988032652035343
  0.1909732721813285  0.0038135963853247  0.2980213038154924
  0.1734583313463016  0.0001947494532137  0.1820289278647553
  0.6751665923582810  0.0051015980325106  0.2420438777551259
  0.1778189841934366  0.5038440118738725  0.3029899956494771
  0.6988157680331699  0.5058165291192911  0.3603821448340374
  0.6767272828251930  0.5016608332414020  0.2381966213505941
  0.5095744136956939  0.0019723386741697  0.1805942208373527
  0.0077421935605410  0.5109518803733484  0.2408544073459985
  0.5186865515535486  0.4959421715361004  0.3019590892624258
  0.3393387166885846  0.7546774854888874  0.2000789605323847
  0.1815542989427469  0.2851012079286281  0.2189025539019486
  0.8364054286076720  0.7568804457804438  0.2602850879826685
  0.6834197187611499  0.7807997442094928  0.2021340544539215
  0.8371331039379261  0.2680988978281283  0.2215489067070089
  0.1817693092301500  0.7362483522726724  0.2621051913329486
  0.0222193412730012  0.7761934679542172  0.3190424861604680
  0.0220668248484030  0.2595071348543714  0.2814033126841492
  0.0170378495632765  0.7639945941724043  0.2001711261919199
  0.1909944209810502  0.2315901043133876  0.3392142423732749
  0.3452468628540031  0.7480912131014252  0.3201189028067830
  0.6807051432278018  0.2424085756822043  0.2795246125928669
  0.5167933207887832  0.2505842593563790  0.2212252443624128
  0.5200253564127888  0.7211025083296695  0.2593792219154691
  0.5266375318787412  0.2507259431442156  0.3427833248052687
  0.8426695047740693  0.2256943134263698  0.3407468200310655
  0.6845884891503667  0.7387576797883901  0.3229332889790048
  0.3428177357282123  0.2707056969671681  0.2813234063358516
  0.8574236216206482  0.5055645143145394  0.4209360953481434
  0.8714366764112590  0.0006149983347237  0.5405532567272223
  0.3606316826944904  0.0125031240768186  0.4793974860408869
  0.7010666015042146  0.0060879112281202  0.4786155246528451
  0.6835516606691877  0.0024690642960095  0.3626231487021079
  0.1852599216811671  0.0073759128753062  0.4226380985924785
  0.6879123135163229  0.5061183267166681  0.4835842164868299
  0.2089090973560559  0.5080908439620866  0.5409763656713901
  0.1868206121480790  0.5039351480841977  0.4187908421879465
  0.0196677430185801  0.0042466535169650  0.3611884416747053
  0.5178355228834270  0.5132261952161439  0.4214486281833510
  0.0287798808764348  0.4982164863788958  0.4825533100997784
  0.8494320460114708  0.7569518003316831  0.3806731813697374
  0.6916476282656331  0.2873755227714237  0.3994967747393014
  0.3464987579305581  0.7591547606232393  0.4408793088200212
  0.1935130480840360  0.7830740590522883  0.3827282752912742
  0.3472264332608120  0.2703732126709238  0.4021431275443615
  0.6918626385530360  0.7385226671154679  0.4426994121703013
  0.5323126705958873  0.7784677827970126  0.4996367069978208
  0.5321601541712891  0.2617814496971669  0.4619975335215019
  0.5271311788861626  0.7662689090151995  0.3807653470292726
  0.7010877503039362  0.2338644191561832  0.5198084632106275
  0.8553401921768893  0.7503655279442207  0.5007131236441357
  0.1907984725506877  0.2446828905249998  0.4601188334302195
  0.0268866501116692  0.2528585741991745  0.4018194651997655
  0.0301186857356751  0.7233768231724649  0.4399734427528219
  0.0367308612016273  0.2530002579870111  0.5233775456426214
  0.3527628340969552  0.2279686282691654  0.5213410408684183
  0.1946818184732527  0.7410319946311855  0.5035275098163574
  0.8529110650510985  0.2729800118099637  0.4619176271732043
  0.3675169509435344  0.5078388291573349  0.6015303161854961
  0.3815300057341454  0.0028893131775194  0.7211474775645748
  0.8707250120173764  0.0147774389196142  0.6599917068782397
  0.2111599308271006  0.0083622260709158  0.6592097454901976
  0.1936449899920737  0.0047433791388050  0.5432173695394605
  0.6953532510040532  0.0096502277181017  0.6032323194298312
  0.1980056428392090  0.5083926415594636  0.6641784373241825
  0.7190024266789421  0.5103651588048822  0.7215705865087430
  0.6969139414709654  0.5062094629269932  0.5993850630252994
  0.5297610723414661  0.0065209683597607  0.5417826625120580
  0.0279288522063134  0.5155005100589395  0.6020428490207037
  0.5388732101993212  0.5004908012216914  0.6631475309371311
  0.3595253753343569  0.7592261151744786  0.5612674022070900
  0.2017409575885192  0.2896498376142193  0.5800909955766539
  0.8565920872534443  0.7614290754660348  0.6214735296573739
  0.7036063774069226  0.7853483738950842  0.5633224961286268
  0.8573197625836981  0.2726475275137193  0.5827373483817143
  0.2019559678759224  0.7407969819582636  0.6232936330076541
  0.0424059999187734  0.7807420976398084  0.6802309278351734
  0.0422534834941748  0.2640557645399625  0.6425917543588546
  0.0372245082090487  0.7685432238579953  0.5613595678666253
  0.2111810796268225  0.2361387339989787  0.7004026840479801
  0.3654335214997753  0.7526398427870165  0.6813073444814883
  0.7008918018735738  0.2469572053677954  0.6407130542675722
  0.5369799794345556  0.2551328890419701  0.5824136860371182
  0.5402120150585610  0.7256511380152604  0.6205676635901745
  0.5468241905245135  0.2552745728298067  0.7039717664799741
  0.8628561634198413  0.2302429431119609  0.7019352617057708
  0.7047751477961391  0.7433063094739814  0.6841217306537101
  0.3630043943739843  0.2752543266527592  0.6425118480105568
Cartesian
  0.0000000000000000  0.0000000000000000  0.0000000000000000
  0.0000000000000000  0.0000000000000000  0.0000000000000000
  0.0000000000000000  0.0000000000000000  0.0000000000000000
  0.0000000000000000  0.0000000000000000  0.0000000000000000
  0.0000000000000000  0.0000000000000000  0.0000000000000000
  0.0000000000000000  0.0000000000000000  0.0000000000000000
  0.0000000000000000  0.0000000000000000  0.0000000000000000
  0.0000000000000000  0.0000000000000000  0.0000000000000000
  0.0000000000000000  0.0000000000000000  0.0000000000000000
  0.0000000000000000  0.0000000000000000  0.0000000000000000
  0.0000000000000000  0.0000000000000000  0.0000000000000000
  0.0000000000000000  0.0000000000000000  0.0000000000000000
  0.0000000000000000  0.0000000000000000  0.0000000000000000
  0.0000000000000000  0.0000000000000000  0.0000000000000000
  0.0000000000000000  0.0000000000000000  0.0000000000000000
  0.0000000000000000  0.0000000000000000  0.0000000000000000
  0.0000000000000000  0.0000000000000000  0.0000000000000000
  0.0000000000000000  0.0000000000000000  0.0000000000000000
  0.0000000000000000  0.0000000000000000  0.0000000000000000
  0.0000000000000000  0.0000000000000000  0.0000000000000000
  0.0000000000000000  0.0000000000000000  0.0000000000000000
  0.0000000000000000  0.0000000000000000  0.0000000000000000
  0.0000000000000000  0.0000000000000000  0.0000000000000000
  0.0000000000000000  0.0000000000000000  0.0000000000000000
  0.0000000000000000  0.0000000000000000  0.0000000000000000
  0.0000000000000000  0.0000000000000000  0.0000000000000000
  0.0000000000000000  0.0000000000000000  0.0000000000000000
  0.0000000000000000  0.0000000000000000  0.0000000000000000
  0.0000000000000000  0.0000000000000000  0.0000000000000000
  0.0000000000000000  0.0000000000000000  0.0000000000000000
  0.0000000000000000  0.0000000000000000  0.0000000000000000
  0.0000000000000000  0.0000000000000000  0.0000000000000000
  0.0000000000000000  0.0000000000000000  0.0000000000000000
  0.0000000000000000  0.0000000000000000  0.0000000000000000
  0.0000000000000000  0.0000000000000000  0.0000000000000000
  0.0000000000000000  0.0000000000000000  0.0000000000000000
  0.0000000000000000  0.0000000000000000  0.0000000000000000
  0.0000000000000000  0.0000000000000000  0.0000000000000000
  0.0000000000000000  0.0000000000000000  0.0000000000000000
  0.0000000000000000  0.0000000000000000  0.0000000000000000
  0.0000000000000000  0.0000000000000000  0.0000000000000000
  0.0000000000000000  0.0000000000000000  0.0000000000000000
  0.0000000000000000  0.0000000000000000  0.0000000000000000
  0.0000000000000000  0.0000000000000000  0.0000000000000000
  0.0000000000000000  0.0000000000000000  0.0000000000000000
  0.0000000000000000  0.0000000000000000  0.0000000000000000
  0.0000000000000000  0.0000000000000000  0.0000000000000000
  0.0000000000000000  0.0000000000000000  0.0000000000000000
  0.0000000000000000  0.0000000000000000  0.0000000000000000
  0.0000000000000000  0.0000000000000000  0.0000000000000000
  0.0000000000000000  0.0000000000000000  0.0000000000000000
  0.0000000000000000  0.0000000000000000  0.0000000000000000
  0.0000000000000000  0.0000000000000000  0.0000000000000000
  0.0000000000000000  0.0000000000000000  0.0000000000000000
  0.0000000000000000  0.0000000000000000  0.0000000000000000
  0.0000000000000000  0.0000000000000000  0.0000000000000000
  0.0000000000000000  0.0000000000000000  0.0000000000000000
  0.0000000000000000  0.0000000000000000  0.0000000000000000
  0.0000000000000000  0.0000000000000000  0.0000000000000000
  0.0000000000000000  0.0000000000000000  0.0000000000000000
  0.0000000000000000  0.0000000000000000  0.0000000000000000
  0.0000000000000000  0.0000000000000000  0.0000000000000000
  0.0000000000000000  0.0000000000000000  0.0000000000000000
  0.0000000000000000  0.0000000000000000  0.0000000000000000
  0.0000000000000000  0.0000000000000000  0.0000000000000000
  0.0000000000000000  0.0000000000000000  0.0000000000000000
  0.0000000000000000  0.0000000000000000  0.0000000000000000
  0.0000000000000000  0.0000000000000000  0.0000000000000000
  0.0000000000000000  0.0000000000000000  0.0000000000000000
  0.0000000000000000  0.0000000000000000  0.0000000000000000
  0.0000000000000000  0.0000000000000000  0.0000000000000000
  0.0000000000000000  0.0000000000000000  0.0000000000000000
  0.0000000000000000  0.0000000000000000  0.0000000000000000
  0.0000000000000000  0.0000000000000000  0.0000000000000000
  0.0000000000000000  0.0000000000000000  0.0000000000000000
  0.0000000000000000  0.0000000000000000  0.0000000000000000
  0.0000000000000000  0.0000000000000000  0.0000000000000000
  0.0000000000000000  0.0000000000000000  0.0000000000000000
  0.0000000000000000  0.0000000000000000  0.0000000000000000
  0.0000000000000000  0.0000000000000000  0.0000000000000000
  0.0000000000000000  0.0000000000000000  0.0000000000000000
  0.0000000000000000  0.0000000000000000  0.0000000000000000
  0.0000000000000000  0.0000000000000000  0.0000000000000000
  0.0000000000000000  0.0000000000000000  0.0000000000000000
  0.0000000000000000  0.0000000000000000  0.0000000000000000
  0.0000000000000000  0.0000000000000000  0.0000000000000000
  0.0000000000000000  0.0000000000000000  0.0000000000000000
  0.0000000000000000  0.0000000000000000  0.0000000000000000
  0.0000000000000000  0.0000000000000000  0.0000000000000000
  0.0000000000000000  0.0000000000000000  0.0000000000000000
  0.0000000000000000  0.0000000000000000  0.0000000000000000
  0.0000000000000000  0.0000000000000000  0.0000000000000000
  0.0000000000000000  0.0000000000000000  0.0000000000000000
  0.0000000000000000  0.0000000000000000  0.0000000000000000
  0.0000000000000000  0.0000000000000000  0.0000000000000000
  0.0000000000000000  0.0000000000000000  0.0000000000000000
  0.0000000000000000  0.0000000000000000  0.0000000000000000
  0.0000000000000000  0.0000000000000000  0.0000000000000000
  0.0000000000000000  0.0000000000000000  0.0000000000000000
  0.0000000000000000  0.0000000000000000  0.0000000000000000
  0.0000000000000000  0.0000000000000000  0.0000000000000000
  0.0000000000000000  0.0000000000000000  0.0000000000000000
  0.0000000000000000  0.0000000000000000  0.0000000000000000
  0.0000000000000000  0.0000000000000000  0.0000000000000000
  0.0000000000000000  0.0000000000000000  0.0000000000000000
  0.0000000000000000  0.0000000000000000  0.0000000000000000
  0.0000000000000000  0.0000000000000000  0.0000000000000000
  0.0000000000000000  0.0000000000000000  0.0000000000000000
  0.0000000000000000  0.0000000000000000  0.0000000000000000
  0.0000000000000000  0.0000000000000000  0.0000000000000000
  0.0000000000000000  0.0000000000000000  0.0000000000000000
  0.0000000000000000  0.0000000000000000  0.0000000000000000
  0.0000000000000000  0.0000000000000000  0.0000000000000000
  0.0000000000000000  0.0000000000000000  0.0000000000000000
  0.0000000000000000  0.0000000000000000  0.0000000000000000
  0.0000000000000000  0.0000000000000000  0.0000000000000000
  0.0000000000000000  0.0000000000000000  0.0000000000000000
  0.0000000000000000  0.0000000000000000  0.0000000000000000
  0.0000000000000000  0.0000000000000000  0.0000000000000000
  0.0000000000000000  0.0000000000000000  0.0000000000000000
