Li Y  Cl Li Y  Cl
 1.0000000000000000
    11.3235275867375140    0.0000000000000000    0.0000000000000000
     0.0108602344484204    5.9914987022128763    0.0000000000000000
     0.0000000000000000    0.0000000000000000   49.4150901829210127
 Li  Y   Cl  Li  Y   Cl 
   9   3  18   9   3  18
Direct
  0.8372369629748762  0.5010158846289483  0.3686894475450128
  0.8512500177654868  0.9960663686491326  0.4990991926986586
  0.3404450240487181  0.0079544943912275  0.4324255784953820
  0.6808799428584424  0.0015392815425291  0.4315730638214100
  0.6633650020234155  0.9979204346104180  0.3051151541610732
  0.1650732630353950  0.0028272831897151  0.3705450158161994
  0.6677256548705507  0.5015696970310770  0.4369900610845660
  0.1887224387102838  0.5035422142764955  0.4995604770908396
  0.1666339535023068  0.4993865183986066  0.3663506366696677
  0.9994810843728081  0.9996980238313740  0.3035509991881861
  0.4976488642376550  0.5086775655305528  0.3692482241925417
  0.0085932222306625  0.4936678566933047  0.4358661400880914
  0.8292453873656984  0.7524031706460919  0.3247937699471541
  0.6714609696198609  0.2828268930858326  0.3453157417603895
  0.3263120992847861  0.7546061309376481  0.3904320583579394
  0.1733263894382640  0.7785254293666973  0.3270342868720215
  0.3270397746150399  0.2658245829853327  0.3482008645213356
  0.6716759799072639  0.7339740374298769  0.3924163824409287
  0.5121260119501151  0.7739191531114217  0.4544909043789947
  0.5119734955255170  0.2572328200115759  0.4134556970203697
  0.5069445202403906  0.7617202793296086  0.3248942513499338
  0.6809010916581643  0.2293157894705921  0.4764826784412213
  0.8351535335311172  0.7458168982586297  0.4556644418455811
  0.1706118139049156  0.2401342608394087  0.4114074892439970
  0.0066999914658971  0.2483099445135834  0.3478479994024181
  0.0099320270899027  0.7188281934868739  0.3894444595752495
  0.0165442025558551  0.2484516283014200  0.4803737850769459
  0.3325761754511832  0.2234199985835743  0.4781535345247165
  0.1744951598274807  0.7364833649455946  0.4587327589603825
  0.8327244064053263  0.2684313821243726  0.4133685810380347
  0.3473302922977621  0.5032901994717438  0.5655779712659871
  0.3613433470883728  0.9983406834919281  0.6959877164196329
  0.8505383533716043  0.0102288092340231  0.6293141022163563
  0.1909732721813285  0.0038135963853247  0.6284615875423843
  0.1734583313463016  0.0001947494532137  0.5020036778820475
  0.6751665923582810  0.0051015980325106  0.5674335395371738
  0.1778189841934366  0.5038440118738725  0.6338785848055403
  0.6988157680331699  0.5058165291192911  0.6964490008118138
  0.6767272828251930  0.5016608332414020  0.5632391603906420
  0.5095744136956939  0.0019723386741697  0.5004395229091604
  0.0077421935605410  0.5109518803733484  0.5661367479135160
  0.5186865515535486  0.4959421715361004  0.6327546638090658
  0.3393387166885846  0.7546774854888874  0.5216822936681285
  0.1815542989427469  0.2851012079286281  0.5422042654813638
  0.8364054286076720  0.7568804457804438  0.5873205820789137
  0.6834197187611499  0.7807997442094928  0.5239228105929958
  0.8371331039379261  0.2680988978281283  0.5450893882423099
  0.1817693092301500  0.7362483522726724  0.5893049061619030
  0.0222193412730012  0.7761934679542172  0.6513794280999690
  0.0220668248484030  0.2595071348543714  0.6103442207413440
  0.0170378495632765  0.7639945941724043  0.5217827750709082
  0.1909944209810502  0.2315901043133876  0.6733712021621957
  0.3452468628540031  0.7480912131014252  0.6525529655665554
  0.6807051432278018  0.2424085756822043  0.6082960129649714
  0.5167933207887832  0.2505842593563790  0.5447365231233924
  0.5200253564127888  0.7211025083296695  0.5863329832962237
  0.5266375318787412  0.2507259431442156  0.6772623087979202
  0.8426695047740693  0.2256943134263698  0.6750420582456907
  0.6845884891503667  0.7387576797883901  0.6556212826813568
  0.3428177357282123  0.2707056969671681  0.6102571047590091
Cartesian
  0.0000000000000000  0.0000000000000000  0.0000000000000000
  0.0000000000000000  0.0000000000000000  0.0000000000000000
  0.0000000000000000  0.0000000000000000  0.0000000000000000
  0.0000000000000000  0.0000000000000000  0.0000000000000000
  0.0000000000000000  0.0000000000000000  0.0000000000000000
  0.0000000000000000  0.0000000000000000  0.0000000000000000
  0.0000000000000000  0.0000000000000000  0.0000000000000000
  0.0000000000000000  0.0000000000000000  0.0000000000000000
  0.0000000000000000  0.0000000000000000  0.0000000000000000
  0.0000000000000000  0.0000000000000000  0.0000000000000000
  0.0000000000000000  0.0000000000000000  0.0000000000000000
  0.0000000000000000  0.0000000000000000  0.0000000000000000
  0.0000000000000000  0.0000000000000000  0.0000000000000000
  0.0000000000000000  0.0000000000000000  0.0000000000000000
  0.0000000000000000  0.0000000000000000  0.0000000000000000
  0.0000000000000000  0.0000000000000000  0.0000000000000000
  0.0000000000000000  0.0000000000000000  0.0000000000000000
  0.0000000000000000  0.0000000000000000  0.0000000000000000
  0.0000000000000000  0.0000000000000000  0.0000000000000000
  0.0000000000000000  0.0000000000000000  0.0000000000000000
  0.0000000000000000  0.0000000000000000  0.0000000000000000
  0.0000000000000000  0.0000000000000000  0.0000000000000000
  0.0000000000000000  0.0000000000000000  0.0000000000000000
  0.0000000000000000  0.0000000000000000  0.0000000000000000
  0.0000000000000000  0.0000000000000000  0.0000000000000000
  0.0000000000000000  0.0000000000000000  0.0000000000000000
  0.0000000000000000  0.0000000000000000  0.0000000000000000
  0.0000000000000000  0.0000000000000000  0.0000000000000000
  0.0000000000000000  0.0000000000000000  0.0000000000000000
  0.0000000000000000  0.0000000000000000  0.0000000000000000
  0.0000000000000000  0.0000000000000000  0.0000000000000000
  0.0000000000000000  0.0000000000000000  0.0000000000000000
  0.0000000000000000  0.0000000000000000  0.0000000000000000
  0.0000000000000000  0.0000000000000000  0.0000000000000000
  0.0000000000000000  0.0000000000000000  0.0000000000000000
  0.0000000000000000  0.0000000000000000  0.0000000000000000
  0.0000000000000000  0.0000000000000000  0.0000000000000000
  0.0000000000000000  0.0000000000000000  0.0000000000000000
  0.0000000000000000  0.0000000000000000  0.0000000000000000
  0.0000000000000000  0.0000000000000000  0.0000000000000000
  0.0000000000000000  0.0000000000000000  0.0000000000000000
  0.0000000000000000  0.0000000000000000  0.0000000000000000
  0.0000000000000000  0.0000000000000000  0.0000000000000000
  0.0000000000000000  0.0000000000000000  0.0000000000000000
  0.0000000000000000  0.0000000000000000  0.0000000000000000
  0.0000000000000000  0.0000000000000000  0.0000000000000000
  0.0000000000000000  0.0000000000000000  0.0000000000000000
  0.0000000000000000  0.0000000000000000  0.0000000000000000
  0.0000000000000000  0.0000000000000000  0.0000000000000000
  0.0000000000000000  0.0000000000000000  0.0000000000000000
  0.0000000000000000  0.0000000000000000  0.0000000000000000
  0.0000000000000000  0.0000000000000000  0.0000000000000000
  0.0000000000000000  0.0000000000000000  0.0000000000000000
  0.0000000000000000  0.0000000000000000  0.0000000000000000
  0.0000000000000000  0.0000000000000000  0.0000000000000000
  0.0000000000000000  0.0000000000000000  0.0000000000000000
  0.0000000000000000  0.0000000000000000  0.0000000000000000
  0.0000000000000000  0.0000000000000000  0.0000000000000000
  0.0000000000000000  0.0000000000000000  0.0000000000000000
  0.0000000000000000  0.0000000000000000  0.0000000000000000
